53
120
96	2
94	2
93	3
92	1
89	3
85	5
83	1
82	2
81	1
80	6
79	2
78	2
77	4
76	1
75	1
74	2
73	1
69	2
68	2
67	2
66	1
65	2
64	1
63	2
62	1
61	1
59	1
58	2
57	3
54	1
53	2
49	2
48	2
47	1
46	3
45	2
44	1
43	1
41	1
40	1
38	2
37	4
36	2
35	1
34	3
33	1
32	2
31	1
30	1
29	1
28	2
27	2
24	2
